(set-logic HORN)
(declare-fun state (Int Int Int (Array Int Int) Int Int Int (Array Int Int) Bool Bool Int (Array Int Int)) Bool)
(assert (forall ((|A_1| Int) (|E_1| Int) (|D_1| Int) (|C_1| (Array Int Int)) (|B_1| Int) (|H_1| Int) (|G_1| Int) (|F_1| (Array Int Int)) (|.loc.11| Bool) (|.loc.12| Bool) (|M| Int) (|L| (Array Int Int)) (|.loc.21| Bool) (|.loc.22| Bool) (|.y.20| (Array Int Int)) (|.y.19| Int) (|.y.17| Int) (|.y.16| (Array Int Int)) (|.y.15| Int) (|.y.13| Int) (|.y.18| Int) (|.y.14| Int) (|.xiv.1| Int) (|.xiv.2| (Array Int Int))) (=> (let ((.def_30 (not (= H_1 (- 1))))) (let ((.def_33 (<= 0 M))) (and (and (not .loc.11) (not .loc.12)) (and (= C_1 (store L M D_1)) (and (and (and .def_30 (and .def_30 (and (and (= E_1 H_1) (and (and (and .def_33 (and (and .def_33 (<= 0 A_1)) (<= 0 B_1))) (<= 0 G_1)) (<= 0 D_1))) (= A_1 B_1)))) (= D_1 G_1)) (= F_1 (store L M G_1))))))) (state |A_1| |E_1| |D_1| |C_1| |B_1| |H_1| |G_1| |F_1| |.loc.11| |.loc.12| |M| |L|))))
(assert (forall ((|A_1| Int) (|E_1| Int) (|D_1| Int) (|C_1| (Array Int Int)) (|B_1| Int) (|H_1| Int) (|G_1| Int) (|F_1| (Array Int Int)) (|.loc.11| Bool) (|.loc.12| Bool) (|M| Int) (|L| (Array Int Int)) (|.loc.21| Bool) (|.loc.22| Bool) (|.y.20| (Array Int Int)) (|.y.19| Int) (|.y.17| Int) (|.y.16| (Array Int Int)) (|.y.15| Int) (|.y.13| Int) (|.y.18| Int) (|.y.14| Int) (|.xiv.1| Int) (|.xiv.2| (Array Int Int))) (=> (and (state |A_1| |E_1| |D_1| |C_1| |B_1| |H_1| |G_1| |F_1| |.loc.11| |.loc.12| |M| |L|) (let ((.def_22 (not .loc.11))) (let ((.def_23 (not .loc.12))) (let ((.def_59 (select C_1 (+ E_1 D_1)))) (let ((.def_61 (= .def_59 41))) (let ((.def_62 (not .def_61))) (let ((.def_63 (= E_1 0))) (let ((.def_66 (select F_1 (+ H_1 G_1)))) (let ((.def_67 (= .def_66 41))) (let ((.def_69 (not .def_67))) (let ((.def_70 (= H_1 0))) (let ((.def_71 (and .def_61 .def_70))) (let ((.def_73 (not .def_63))) (let ((.def_76 (and .def_63 .def_71))) (let ((.def_83 (not (= C_1 F_1)))) (let ((.def_87 (not .def_70))) (let ((.def_91 (not .loc.22))) (let ((.def_93 (not .loc.21))) (let ((.def_96 (= F_1 .y.20))) (let ((.def_99 (= G_1 .y.19))) (let ((.def_102 (= B_1 .y.17))) (let ((.def_105 (= C_1 .y.16))) (let ((.def_108 (= D_1 .y.15))) (let ((.def_111 (= A_1 .y.13))) (let ((.def_116 (= (+ H_1 (* (- 1) .y.18)) 1))) (let ((.def_121 (= (+ E_1 (* (- 1) .y.14)) 1))) (let ((.def_135 (= H_1 .y.18))) (let ((.def_150 (= E_1 .y.14))) (let ((.def_155 (and .loc.11 .loc.21))) (let ((.def_156 (and .loc.22 .def_155))) (let ((.def_158 (= .def_66 9))) (let ((.def_159 (not .def_158))) (let ((.def_162 (= .def_59 32))) (let ((.def_163 (not .def_162))) (let ((.def_164 (and (and .def_156 .def_159) .def_163))) (let ((.def_166 (= .def_59 61))) (let ((.def_167 (not .def_166))) (let ((.def_169 (= .def_59 9))) (let ((.def_170 (not .def_169))) (let ((.def_172 (= .def_66 32))) (let ((.def_173 (not .def_172))) (let ((.def_175 (= .def_66 61))) (let ((.def_181 (not .def_175))) (let ((.def_198 (and .def_111 (and .def_108 (and .def_105 (and .def_102 (and .def_99 (and .def_96 (and .def_91 .def_155))))))))) (let ((.def_201 (= (+ H_1 (* (- 1) .y.18)) (- 1)))) (let ((.def_203 (= (+ E_1 (* (- 1) .y.14)) (- 1)))) (let ((.def_206 (and .def_158 .def_198))) (let ((.def_224 (and .def_135 .def_198))) (let ((.def_228 (or .def_159 .def_172))) (let ((.def_237 (and .def_150 .def_198))) (let ((.def_241 (or .def_162 .def_170))) (let ((.def_259 (and .loc.12 .def_22))) (let ((.def_263 (select C_1 (+ (+ E_1 D_1) 1)))) (let ((.def_264 (= .def_263 32))) (let ((.def_265 (not .def_264))) (let ((.def_267 (= .def_263 9))) (let ((.def_268 (not .def_267))) (let ((.def_270 (select F_1 (+ (+ H_1 G_1) 1)))) (let ((.def_271 (= .def_270 9))) (let ((.def_272 (not .def_271))) (let ((.def_274 (= .def_270 32))) (let ((.def_275 (not .def_274))) (let ((.def_285 (and .def_111 (and .def_108 (and .def_105 (and .def_102 (and .def_99 (and .def_96 (and .def_93 (and .loc.22 .def_259)))))))))) (let ((.def_287 (and .def_203 (and .def_201 .def_285)))) (let ((.def_288 (and .def_264 .def_287))) (let ((.def_295 (and .def_267 (and .def_265 .def_287)))) (let ((.def_302 (and .def_203 (and .def_135 .def_285)))) (let ((.def_305 (or .def_272 .def_274))) (let ((.def_315 (and .def_265 (and .def_201 (and .def_150 .def_285))))) (let ((.def_317 (or .def_264 .def_268))) (let ((.def_324 (and .def_61 .def_87))) (let ((.def_338 (= .y.16 (store C_1 (+ E_1 D_1) 0)))) (let ((.def_341 (= .y.20 (store F_1 (+ H_1 G_1) 0)))) (or (or (or (or (or (or (or (or (or (or (or (or (or (or (and .def_23 (or (or (or (or (or (or (or (or (or (or (or (and .def_22 (or (or (or (and (and .loc.21 .loc.22) (or (or (or (and (and .def_62 .def_63) .def_67) (and (and .def_69 .def_71) .def_73)) (and .def_69 .def_76)) (and (and .def_69 (and .def_63 (and .def_62 .def_70))) .def_83))) (and (and (and (and (and (and (and (and (and (and (and .def_73 (and .def_69 (and .def_62 .def_87))) .def_91) .def_93) .def_96) .def_99) .def_102) .def_105) .def_108) .def_111) .def_116) .def_121)) (and (or .def_67 .def_70) (and (and .def_121 (and .def_111 (and .def_108 (and .def_105 (and .def_102 (and .def_99 (and .def_96 (and .def_93 (and .def_91 (and .def_62 .def_73)))))))))) .def_135))) (and (or .def_61 .def_63) (and (and .def_116 (and .def_111 (and .def_108 (and .def_105 (and .def_102 (and .def_99 (and .def_96 (and .def_93 (and .def_91 (and .def_69 .def_87)))))))))) .def_150)))) (and (and (and (and .def_164 .def_167) .def_170) .def_173) .def_175)) (and (and .def_173 (and .def_170 (and .def_164 .def_166))) .def_181)) (and .def_181 (and .def_173 (and .def_170 (and .def_167 (and .def_163 (and .def_159 (and .def_83 .def_156)))))))) (and (and (and .def_172 (and .def_162 .def_198)) .def_201) .def_203)) (and .def_203 (and .def_201 (and .def_173 (and .def_162 .def_206))))) (and .def_203 (and .def_201 (and .def_172 (and .def_169 (and .def_163 .def_198)))))) (and .def_203 (and .def_201 (and .def_173 (and .def_169 (and .def_163 .def_206)))))) (and (and .def_203 (and .def_173 (and .def_162 .def_224))) .def_228)) (and .def_228 (and .def_203 (and .def_173 (and .def_169 (and .def_163 .def_224)))))) (and (and .def_201 (and .def_172 (and .def_163 .def_237))) .def_241)) (and .def_241 (and .def_201 (and .def_173 (and .def_163 (and .def_158 .def_237))))))) (and (and (and (and (and (not (= (store C_1 A_1 (+ (+ E_1 D_1) 1)) (store F_1 B_1 (+ (+ H_1 G_1) 1)))) (and .loc.22 (and .loc.21 .def_259))) .def_265) .def_268) .def_272) .def_275)) (and .def_274 .def_288)) (and .def_275 (and .def_271 .def_288))) (and .def_274 .def_295)) (and .def_275 (and .def_271 .def_295))) (and (and .def_275 (and .def_264 .def_302)) .def_305)) (and .def_305 (and .def_275 (and .def_267 (and .def_265 .def_302))))) (and (and .def_274 .def_315) .def_317)) (and .def_317 (and .def_275 (and .def_271 .def_315)))) (and (and (and .def_203 (and .def_201 (and .def_111 (and .def_108 (and .def_102 (and .def_99 (and .def_91 (and .loc.21 (and .def_23 (and .def_22 (and .def_73 (and .def_67 .def_324)))))))))))) .def_338) .def_341)) (and .def_341 (and .def_338 (and .def_203 (and .def_201 (and .def_111 (and .def_108 (and .def_102 (and .def_99 (and .def_91 (and .loc.21 (and .def_23 (and .def_22 (and .def_73 (and .def_67 .def_71))))))))))))))) (and .def_341 (and .def_338 (and .def_203 (and .def_201 (and .def_111 (and .def_108 (and .def_102 (and .def_99 (and .def_91 (and .loc.21 (and .def_23 (and .def_22 (and .def_67 (and .def_63 .def_324))))))))))))))) (and .def_341 (and .def_338 (and .def_203 (and .def_201 (and .def_111 (and .def_108 (and .def_102 (and .def_99 (and .def_91 (and .loc.21 (and .def_23 (and .def_22 (and .def_67 .def_76)))))))))))))) (and .def_175 (and .def_173 (and .def_170 (and .def_166 (and .def_163 (and .def_159 (and .def_150 (and .def_135 (and .def_111 (and .def_108 (and .def_105 (and .def_102 (and .def_99 (and .def_96 (and .def_93 (and .loc.22 (and .loc.11 .def_23))))))))))))))))))))))))))))))))))))))))))))))))))))))))))))))))))))))))))))))))))))))))))) (state |.y.13| |.y.14| |.y.15| |.y.16| |.y.17| |.y.18| |.y.19| |.y.20| |.loc.21| |.loc.22| |.xiv.1| |.xiv.2|))))
(assert (forall ((|A_1| Int) (|E_1| Int) (|D_1| Int) (|C_1| (Array Int Int)) (|B_1| Int) (|H_1| Int) (|G_1| Int) (|F_1| (Array Int Int)) (|.loc.11| Bool) (|.loc.12| Bool) (|M| Int) (|L| (Array Int Int)) (|.loc.21| Bool) (|.loc.22| Bool) (|.y.20| (Array Int Int)) (|.y.19| Int) (|.y.17| Int) (|.y.16| (Array Int Int)) (|.y.15| Int) (|.y.13| Int) (|.y.18| Int) (|.y.14| Int) (|.xiv.1| Int) (|.xiv.2| (Array Int Int))) (=> (state |A_1| |E_1| |D_1| |C_1| |B_1| |H_1| |G_1| |F_1| |.loc.11| |.loc.12| |M| |L|) (not (and .loc.11 .loc.12)))))
(check-sat)
